p edge 40 157
v 1 2
v 2 1
v 3 3
v 4 3
v 5 2
v 6 3
v 7 1
v 8 2
v 9 3
v 10 3
v 11 3
v 12 1
v 13 1
v 14 2
v 15 1
v 16 3
v 17 2
v 18 2
v 19 2
v 20 2
v 21 2
v 22 1
v 23 1
v 24 1
v 25 2
v 26 2
v 27 3
v 28 3
v 29 1
v 30 2
v 31 1
v 32 3
v 33 3
v 34 3
v 35 3
v 36 1
v 37 2
v 38 3
v 39 3
v 40 2
e 1 10
e 1 12
e 1 13
e 1 15
e 1 25
e 1 28
e 1 33
e 1 37
e 1 40
e 2 11
e 2 12
e 2 16
e 2 17
e 2 18
e 2 20
e 2 21
e 2 22
e 2 25
e 2 26
e 2 32
e 2 34
e 2 36
e 3 6
e 3 14
e 3 17
e 3 18
e 3 26
e 3 29
e 3 31
e 3 38
e 4 14
e 4 24
e 4 27
e 4 29
e 4 30
e 5 16
e 5 19
e 5 32
e 5 35
e 6 8
e 6 9
e 6 18
e 6 34
e 6 38
e 6 39
e 7 14
e 7 29
e 8 9
e 8 11
e 8 18
e 8 20
e 8 34
e 8 38
e 8 39
e 9 38
e 9 39
e 10 25
e 10 28
e 10 37
e 10 40
e 11 20
e 11 21
e 11 22
e 11 32
e 11 34
e 11 39
e 12 16
e 12 17
e 12 22
e 12 25
e 12 26
e 12 36
e 12 37
e 12 40
e 13 15
e 13 23
e 13 24
e 13 27
e 13 28
e 13 30
e 13 33
e 13 37
e 13 40
e 14 17
e 14 26
e 14 27
e 14 29
e 14 30
e 14 31
e 15 23
e 15 24
e 15 28
e 15 33
e 15 37
e 15 40
e 16 19
e 16 21
e 16 22
e 16 25
e 16 32
e 16 35
e 16 36
e 17 18
e 17 26
e 17 31
e 17 34
e 17 36
e 17 38
e 18 26
e 18 31
e 18 34
e 18 38
e 19 21
e 19 22
e 19 25
e 19 32
e 19 35
e 20 21
e 20 22
e 20 32
e 20 39
e 21 22
e 21 32
e 21 36
e 22 25
e 22 32
e 22 36
e 23 28
e 23 33
e 24 27
e 24 30
e 24 33
e 25 32
e 25 36
e 25 37
e 26 31
e 26 34
e 26 36
e 26 38
e 27 29
e 27 30
e 27 31
e 28 33
e 28 37
e 28 40
e 29 31
e 30 31
e 30 33
e 32 35
e 32 36
e 33 37
e 33 40
e 34 38
e 34 39
e 36 37
e 37 40
e 38 39
